425 8688
 2 3 4 5 6 7 8 9 10 11 12 13 14 15 16 33 38 43 44 45 50 52 56 57 58 59 60 61 62 63 64 65 66 67 68 69 70 71 72 73 74 75 76 77 78 79 80 81 82 83 84 85 86 87 88 89 91 92 93 94 95 96 97 98 99 100 101 102 103 104 105 108 109 110 111 112 113 114 115 116 117 120 121 123 124 125 126 128 129 130 131 132 133 134 135 136 137 138 139 141 142 143 144 145 146 147 148 149 150 152 153 154 155 156 157 159 160 161 162 163 164 165 168 170 171 172 173 174 175 176 177 178 179 180 181 182 183 184 185 186 187 188 189 190 191 192 193 194 195 196 197 198 200 201 202 203 204 205 206 207 209 210 211 212 213 214 215 216 217 218 219 220 221 222 223 224 225 226 228 229 230 231 232 234 235 236 237 240 241 242 243 244 245 246 247 248 249 250 251 252 253 254 255 256 257 258 259 260 261 262 263 265 266 267 269 271 272 273 275 276 277 278 279 280 281 282 283 284 285 286 287 288 289 290 291 292 293 294 295 296 297 298 299 300 301 302 303 304 305 306 307 308 309 311 313 314 315 316 317 318 319 320 321 325 327 328 329 330 331 332 333 334 335 336 337 338 340 341 342 344 345 346 347 348 349 350 351 352 353 354 355 356 357 358 360 363 364 366 368 369 370 371 372 373 374 376 377 378 379 381 382 383 384 385 387 389 390 391 392 393 394 395 396 397 398 400 401 402 403 404 406 407 408 409 410 411 412 413 414 416 417 419 420 421 423 425
 3 4 5 6 7 8 9 10 11 12 13 14 15 16 33 38 43 44 45 50 52 56 57 58 59 60 61 62 63 64 65 66 67 68 69 70 71 72 73 74 75 76 77 78 79 80 81 82 83 84 85 86 87 88 89 91 92 93 94 95 96 97 98 99 100 101 102 103 104 105 108 109 110 111 112 113 114 115 116 117 120 121 123 124 125 126 128 129 130 131 132 133 134 135 136 137 138 139 141 142 143 144 145 146 147 148 149 150 152 153 154 155 156 157 159 160 161 162 163 164 165 168 170 171 172 173 174 175 176 177 178 179 180 181 182 183 184 185 186 187 188 189 190 191 192 193 194 195 196 197 198 200 201 202 203 204 205 206 207 209 210 211 212 213 214 215 216 217 218 219 220 221 222 223 224 225 226 228 229 230 231 232 234 235 236 237 240 241 242 243 244 245 246 247 248 249 250 251 252 253 254 255 256 257 258 259 260 261 262 263 265 266 267 269 271 272 273 275 276 277 278 279 280 281 282 283 284 285 286 287 288 289 290 291 292 293 294 295 296 297 298 299 300 301 302 303 304 305 306 307 308 309 311 313 314 315 316 317 318 319 320 321 325 327 328 329 330 331 332 333 334 335 336 337 338 340 341 342 344 345 346 347 348 349 350 351 352 353 354 355 356 357 358 360 363 364 366 368 369 370 371 372 373 374 376 377 378 379 381 382 383 384 385 387 389 390 391 392 393 394 395 396 397 398 400 401 402 403 404 406 407 408 409 410 411 412 413 414 416 417 419 420 421 423 425
 4 5 6 7 8 9 10 11 12 13 14 15 16 50 78 79 80 81 82 83 84 85 86 126 173 200 201 202 203 204 205 206 207 228 229 230 231 232 272 273 340 341 342 364 366 387 402 403 404 417
 5 6 7 8 9 10 11 12 13 14 15 16 50 78 79 80 81 82 83 84 85 86 126 173 200 201 202 203 204 205 206 207 228 229 230 231 232 272 273 340 341 342 364 366 387 402 403 404 417
 6 7 8 9 10 11 12 13 14 15 16 50 70 78 79 80 81 82 83 84 85 86 126 173 200 201 202 203 204 205 206 207 228 229 230 231 232 255 272 273 340 341 342 364 366 387 402 403 404 417
 7 8 9 10 11 12 13 14 15 16 50 70 71 78 79 80 81 82 83 84 85 86 126 173 200 201 202 203 204 205 206 207 228 229 230 231 232 254 255 272 273 340 341 342 364 366 387 402 403 404 417
 8 9 10 11 12 13 14 15 16 50 70 71 72 78 79 80 81 82 83 84 85 86 126 173 200 201 202 203 204 205 206 207 228 229 230 231 232 253 254 255 272 273 340 341 342 364 366 387 402 403 404 417
 9 10 11 12 13 14 15 16 50 70 71 72 73 78 79 80 81 82 83 84 85 86 126 173 200 201 202 203 204 205 206 207 228 229 230 231 232 252 253 254 255 272 273 340 341 342 364 366 387 402 403 404 417
 10 11 12 13 14 15 16 50 70 71 72 73 74 78 79 80 81 82 83 84 85 86 126 173 200 201 202 203 204 205 206 207 228 229 230 231 232 251 252 253 254 255 272 273 340 341 342 364 366 387 402 403 404 417
 11 12 13 14 15 16 50 70 71 72 73 74 75 78 79 80 81 82 83 84 85 86 126 173 200 201 202 203 204 205 206 207 228 229 230 231 232 250 251 252 253 254 255 272 273 340 341 342 364 366 387 402 403 404 417
 12 13 14 15 16 43 44 50 57 70 71 72 73 74 75 76 77 78 79 80 81 82 83 84 85 86 89 95 126 139 161 164 173 200 201 202 203 204 205 206 207 228 229 230 231 232 272 273 284 316 340 341 342 364 366 387 402 403 404 417
 13 14 15 16 43 44 50 57 70 71 72 73 74 75 76 77 78 79 80 81 82 83 84 85 86 87 88 89 95 126 139 161 164 173 200 201 202 203 204 205 206 207 228 229 230 231 232 272 273 284 316 340 341 342 364 366 387 402 403 404 417
 14 15 16 33 43 44 50 57 70 71 72 73 74 75 76 77 78 79 80 81 82 83 84 85 86 87 88 89 95 126 139 161 164 173 200 201 202 203 204 205 206 207 228 229 230 231 232 272 273 284 316 340 341 342 364 366 387 402 403 404 417
 15 16 33 43 44 50 57 70 71 72 73 74 75 76 77 78 79 80 81 82 83 84 85 86 87 88 89 91 92 95 126 139 161 164 173 200 201 202 203 204 205 206 207 228 229 230 231 232 272 273 284 316 340 341 342 364 366 387 402 403 404 417
 16 43 44 50 57 78 79 80 81 82 83 84 85 86 89 95 126 139 161 164 173 200 201 202 203 204 205 206 207 228 229 230 231 232 272 273 284 316 340 341 342 364 366 387 402 403 404 417
 43 44 50 57 70 71 72 73 74 75 76 78 79 80 81 82 83 84 85 86 89 95 126 139 161 164 173 200 201 202 203 204 205 206 207 228 229 230 231 232 249 250 251 252 253 254 255 272 273 284 316 340 341 342 364 366 387 402 403 404 417
 18 19 20 21 22 23 24 25 26 27 28 29 30 31 32 33 38 43 44 45 50 52 56 57 58 59 60 61 62 63 64 65 66 67 68 69 70 71 72 73 74 75 76 77 78 79 80 81 82 83 84 85 86 87 88 89 91 92 93 94 95 96 97 98 99 100 101 102 103 104 105 108 109 110 111 112 113 114 115 116 117 120 121 123 124 125 126 128 129 130 131 132 133 134 135 136 137 138 139 141 142 143 144 145 146 147 148 149 150 152 153 154 155 156 157 159 160 161 162 163 164 165 168 170 171 172 173 174 175 176 177 178 179 180 181 182 183 184 185 186 187 188 189 190 191 192 193 194 195 196 197 198 200 201 202 203 204 205 206 207 209 210 211 212 213 214 215 216 217 218 219 220 221 222 223 224 225 226 228 229 230 231 232 234 235 236 237 240 241 242 243 244 245 246 247 248 249 250 251 252 253 254 255 256 257 258 259 260 261 262 263 265 266 267 269 271 272 273 275 276 277 278 279 280 281 282 283 284 285 286 287 288 289 290 291 292 293 294 295 296 297 298 299 300 301 302 303 304 305 306 307 308 309 311 313 314 315 316 317 318 319 320 321 325 327 328 329 330 331 332 333 334 335 336 337 338 340 341 342 344 345 346 347 348 349 350 351 352 353 354 355 356 357 358 360 363 364 366 368 369 370 371 372 373 374 376 377 378 379 381 382 383 384 385 387 389 390 391 392 393 394 395 396 397 398 400 401 402 403 404 406 407 408 409 410 411 412 413 414 416 417 419 420 421 423 425
 19 20 21 22 23 24 25 26 27 28 29 30 31 32 33 38 43 44 45 52 56 57 58 59 60 61 62 63 64 65 66 67 68 69 70 71 72 73 74 75 76 77 87 88 89 91 92 93 94 95 96 97 98 99 100 101 102 103 104 105 108 109 110 111 112 113 114 115 116 117 120 121 123 124 125 128 129 130 131 132 133 134 135 136 137 138 139 141 142 143 144 145 146 147 148 149 150 152 153 154 155 156 157 159 160 161 162 163 164 165 168 170 171 172 174 175 176 177 178 179 180 181 182 183 184 185 186 187 188 189 190 191 192 193 194 195 196 197 198 209 210 211 212 213 214 215 216 217 218 219 220 221 222 223 224 225 226 234 235 236 237 240 241 242 243 244 245 246 247 248 249 250 251 252 253 254 255 256 257 258 259 260 261 262 263 265 266 267 269 271 275 276 277 278 279 280 281 282 283 284 285 286 287 288 289 290 291 292 293 294 295 296 297 298 299 300 301 302 303 304 305 306 307 308 309 311 313 314 315 316 317 318 319 320 321 325 327 328 329 330 331 332 333 334 335 336 337 338 344 345 346 347 348 349 350 351 352 353 354 355 356 357 358 360 363 368 369 370 371 372 373 374 376 377 378 379 381 382 383 384 385 389 390 391 392 393 394 395 396 397 398 400 401 406 407 408 409 410 411 412 413 414 416 419 420 421 423 425
 20 21 22 23 24 25 26 27 28 29 30 31 32 33 38 43 44 45 52 56 57 58 59 60 61 62 63 64 65 66 67 68 69 70 71 72 73 74 75 76 77 78 87 88 89 91 92 93 94 95 96 97 98 99 100 101 102 103 104 105 108 109 110 111 112 113 114 115 116 117 120 121 123 124 125 128 129 130 131 132 133 134 135 136 137 138 139 141 142 143 144 145 146 147 148 149 150 152 153 154 155 156 157 159 160 161 162 163 164 165 168 170 171 172 174 175 176 177 178 179 180 181 182 183 184 185 186 187 188 189 190 191 192 193 194 195 196 197 198 209 210 211 212 213 214 215 216 217 218 219 220 221 222 223 224 225 226 234 235 236 237 240 241 242 243 244 245 246 247 248 249 250 251 252 253 254 255 256 257 258 259 260 261 262 263 265 266 267 269 271 275 276 277 278 279 280 281 282 283 284 285 286 287 288 289 290 291 292 293 294 295 296 297 298 299 300 301 302 303 304 305 306 307 308 309 311 313 314 315 316 317 318 319 320 321 325 327 328 329 330 331 332 333 334 335 336 337 338 344 345 346 347 348 349 350 351 352 353 354 355 356 357 358 360 363 368 369 370 371 372 373 374 376 377 378 379 381 382 383 384 385 389 390 391 392 393 394 395 396 397 398 400 401 406 407 408 409 410 411 412 413 414 416 419 420 421 423 425
 21 22 23 24 25 26 27 28 29 30 31 32 33 38 43 44 45 52 56 57 58 59 60 61 62 63 64 65 66 67 68 69 70 71 72 73 74 75 76 77 78 79 87 88 89 91 92 93 94 95 96 97 98 99 100 101 102 103 104 105 108 109 110 111 112 113 114 115 116 117 120 121 123 124 125 128 129 130 131 132 133 134 135 136 137 138 139 141 142 143 144 145 146 147 148 149 150 152 153 154 155 156 157 159 160 161 162 163 164 165 168 170 171 172 174 175 176 177 178 179 180 181 182 183 184 185 186 187 188 189 190 191 192 193 194 195 196 197 198 209 210 211 212 213 214 215 216 217 218 219 220 221 222 223 224 225 226 234 235 236 237 240 241 242 243 244 245 246 247 248 249 250 251 252 253 254 255 256 257 258 259 260 261 262 263 265 266 267 269 271 275 276 277 278 279 280 281 282 283 284 285 286 287 288 289 290 291 292 293 294 295 296 297 298 299 300 301 302 303 304 305 306 307 308 309 311 313 314 315 316 317 318 319 320 321 325 327 328 329 330 331 332 333 334 335 336 337 338 344 345 346 347 348 349 350 351 352 353 354 355 356 357 358 360 363 368 369 370 371 372 373 374 376 377 378 379 381 382 383 384 385 389 390 391 392 393 394 395 396 397 398 400 401 406 407 408 409 410 411 412 413 414 416 419 420 421 423 425
 22 23 24 25 26 27 28 29 30 31 32 33 38 43 44 45 52 56 57 58 59 60 61 62 63 64 65 66 67 68 69 70 71 72 73 74 75 76 77 78 79 80 87 88 89 91 92 93 94 95 96 97 98 99 100 101 102 103 104 105 108 109 110 111 112 113 114 115 116 117 120 121 123 124 125 128 129 130 131 132 133 134 135 136 137 138 139 141 142 143 144 145 146 147 148 149 150 152 153 154 155 156 157 159 160 161 162 163 164 165 168 170 171 172 174 175 176 177 178 179 180 181 182 183 184 185 186 187 188 189 190 191 192 193 194 195 196 197 198 209 210 211 212 213 214 215 216 217 218 219 220 221 222 223 224 225 226 234 235 236 237 240 241 242 243 244 245 246 247 248 249 250 251 252 253 254 255 256 257 258 259 260 261 262 263 265 266 267 269 271 275 276 277 278 279 280 281 282 283 284 285 286 287 288 289 290 291 292 293 294 295 296 297 298 299 300 301 302 303 304 305 306 307 308 309 311 313 314 315 316 317 318 319 320 321 325 327 328 329 330 331 332 333 334 335 336 337 338 344 345 346 347 348 349 350 351 352 353 354 355 356 357 358 360 363 368 369 370 371 372 373 374 376 377 378 379 381 382 383 384 385 389 390 391 392 393 394 395 396 397 398 400 401 406 407 408 409 410 411 412 413 414 416 419 420 421 423 425
 23 24 25 26 27 28 29 30 31 32 33 38 43 44 45 52 56 57 58 59 60 61 62 63 64 65 66 67 68 69 70 71 72 73 74 75 76 77 78 79 80 81 87 88 89 91 92 93 94 95 96 97 98 99 100 101 102 103 104 105 108 109 110 111 112 113 114 115 116 117 120 121 123 124 125 128 129 130 131 132 133 134 135 136 137 138 139 141 142 143 144 145 146 147 148 149 150 152 153 154 155 156 157 159 160 161 162 163 164 165 168 170 171 172 174 175 176 177 178 179 180 181 182 183 184 185 186 187 188 189 190 191 192 193 194 195 196 197 198 209 210 211 212 213 214 215 216 217 218 219 220 221 222 223 224 225 226 234 235 236 237 240 241 242 243 244 245 246 247 248 249 250 251 252 253 254 255 256 257 258 259 260 261 262 263 265 266 267 269 271 275 276 277 278 279 280 281 282 283 284 285 286 287 288 289 290 291 292 293 294 295 296 297 298 299 300 301 302 303 304 305 306 307 308 309 311 313 314 315 316 317 318 319 320 321 325 327 328 329 330 331 332 333 334 335 336 337 338 344 345 346 347 348 349 350 351 352 353 354 355 356 357 358 360 363 368 369 370 371 372 373 374 376 377 378 379 381 382 383 384 385 389 390 391 392 393 394 395 396 397 398 400 401 406 407 408 409 410 411 412 413 414 416 419 420 421 423 425
 24 25 26 27 28 29 30 31 32 33 38 43 44 45 52 56 57 58 59 60 61 62 63 64 65 66 67 68 69 70 71 72 73 74 75 76 77 78 79 80 81 82 87 88 89 91 92 93 94 95 96 97 98 99 100 101 102 103 104 105 108 109 110 111 112 113 114 115 116 117 120 121 123 124 125 128 129 130 131 132 133 134 135 136 137 138 139 141 142 143 144 145 146 147 148 149 150 152 153 154 155 156 157 159 160 161 162 163 164 165 168 170 171 172 174 175 176 177 178 179 180 181 182 183 184 185 186 187 188 189 190 191 192 193 194 195 196 197 198 209 210 211 212 213 214 215 216 217 218 219 220 221 222 223 224 225 226 234 235 236 237 240 241 242 243 244 245 246 247 248 249 250 251 252 253 254 255 256 257 258 259 260 261 262 263 265 266 267 269 271 275 276 277 278 279 280 281 282 283 284 285 286 287 288 289 290 291 292 293 294 295 296 297 298 299 300 301 302 303 304 305 306 307 308 309 311 313 314 315 316 317 318 319 320 321 325 327 328 329 330 331 332 333 334 335 336 337 338 344 345 346 347 348 349 350 351 352 353 354 355 356 357 358 360 363 368 369 370 371 372 373 374 376 377 378 379 381 382 383 384 385 389 390 391 392 393 394 395 396 397 398 400 401 406 407 408 409 410 411 412 413 414 416 419 420 421 423 425
 25 26 27 28 29 30 31 32 33 38 43 44 45 52 56 57 58 59 60 61 62 63 64 65 66 67 68 69 70 71 72 73 74 75 76 77 78 79 80 81 82 83 87 88 89 91 92 93 94 95 96 97 98 99 100 101 102 103 104 105 108 109 110 111 112 113 114 115 116 117 120 121 123 124 125 128 129 130 131 132 133 134 135 136 137 138 139 141 142 143 144 145 146 147 148 149 150 152 153 154 155 156 157 159 160 161 162 163 164 165 168 170 171 172 174 175 176 177 178 179 180 181 182 183 184 185 186 187 188 189 190 191 192 193 194 195 196 197 198 209 210 211 212 213 214 215 216 217 218 219 220 221 222 223 224 225 226 234 235 236 237 240 241 242 243 244 245 246 247 248 249 250 251 252 253 254 255 256 257 258 259 260 261 262 263 265 266 267 269 271 275 276 277 278 279 280 281 282 283 284 285 286 287 288 289 290 291 292 293 294 295 296 297 298 299 300 301 302 303 304 305 306 307 308 309 311 313 314 315 316 317 318 319 320 321 325 327 328 329 330 331 332 333 334 335 336 337 338 344 345 346 347 348 349 350 351 352 353 354 355 356 357 358 360 363 368 369 370 371 372 373 374 376 377 378 379 381 382 383 384 385 389 390 391 392 393 394 395 396 397 398 400 401 406 407 408 409 410 411 412 413 414 416 419 420 421 423 425
 26 27 28 29 30 31 32 33 38 43 44 45 52 56 57 58 59 60 61 62 63 64 65 66 67 68 69 70 71 72 73 74 75 76 77 78 79 80 81 82 83 84 87 88 89 91 92 93 94 95 96 97 98 99 100 101 102 103 104 105 108 109 110 111 112 113 114 115 116 117 120 121 123 124 125 128 129 130 131 132 133 134 135 136 137 138 139 141 142 143 144 145 146 147 148 149 150 152 153 154 155 156 157 159 160 161 162 163 164 165 168 170 171 172 174 175 176 177 178 179 180 181 182 183 184 185 186 187 188 189 190 191 192 193 194 195 196 197 198 209 210 211 212 213 214 215 216 217 218 219 220 221 222 223 224 225 226 234 235 236 237 240 241 242 243 244 245 246 247 248 249 250 251 252 253 254 255 256 257 258 259 260 261 262 263 265 266 267 269 271 275 276 277 278 279 280 281 282 283 284 285 286 287 288 289 290 291 292 293 294 295 296 297 298 299 300 301 302 303 304 305 306 307 308 309 311 313 314 315 316 317 318 319 320 321 325 327 328 329 330 331 332 333 334 335 336 337 338 344 345 346 347 348 349 350 351 352 353 354 355 356 357 358 360 363 368 369 370 371 372 373 374 376 377 378 379 381 382 383 384 385 389 390 391 392 393 394 395 396 397 398 400 401 406 407 408 409 410 411 412 413 414 416 419 420 421 423 425
 27 28 29 30 31 32 33 38 43 44 45 52 56 57 58 59 60 61 62 63 64 65 66 67 68 69 70 71 72 73 74 75 76 77 78 79 80 81 82 83 84 85 87 88 89 91 92 93 94 95 96 97 98 99 100 101 102 103 104 105 108 109 110 111 112 113 114 115 116 117 120 121 123 124 125 128 129 130 131 132 133 134 135 136 137 138 139 141 142 143 144 145 146 147 148 149 150 152 153 154 155 156 157 159 160 161 162 163 164 165 168 170 171 172 174 175 176 177 178 179 180 181 182 183 184 185 186 187 188 189 190 191 192 193 194 195 196 197 198 209 210 211 212 213 214 215 216 217 218 219 220 221 222 223 224 225 226 234 235 236 237 240 241 242 243 244 245 246 247 248 249 250 251 252 253 254 255 256 257 258 259 260 261 262 263 265 266 267 269 271 275 276 277 278 279 280 281 282 283 284 285 286 287 288 289 290 291 292 293 294 295 296 297 298 299 300 301 302 303 304 305 306 307 308 309 311 313 314 315 316 317 318 319 320 321 325 327 328 329 330 331 332 333 334 335 336 337 338 344 345 346 347 348 349 350 351 352 353 354 355 356 357 358 360 363 368 369 370 371 372 373 374 376 377 378 379 381 382 383 384 385 389 390 391 392 393 394 395 396 397 398 400 401 406 407 408 409 410 411 412 413 414 416 419 420 421 423 425
 28 29 30 31 32 33 38 43 44 45 52 56 57 58 59 60 61 62 63 64 65 66 67 68 69 70 71 72 73 74 75 76 77 78 79 80 81 82 83 84 85 86 87 88 89 91 92 93 94 95 96 97 98 99 100 101 102 103 104 105 108 109 110 111 112 113 114 115 116 117 120 121 123 124 125 128 129 130 131 132 133 134 135 136 137 138 139 141 142 143 144 145 146 147 148 149 150 152 153 154 155 156 157 159 160 161 162 163 164 165 168 170 171 172 174 175 176 177 178 179 180 181 182 183 184 185 186 187 188 189 190 191 192 193 194 195 196 197 198 209 210 211 212 213 214 215 216 217 218 219 220 221 222 223 224 225 226 234 235 236 237 240 241 242 243 244 245 246 247 248 249 250 251 252 253 254 255 256 257 258 259 260 261 262 263 265 266 267 269 271 275 276 277 278 279 280 281 282 283 284 285 286 287 288 289 290 291 292 293 294 295 296 297 298 299 300 301 302 303 304 305 306 307 308 309 311 313 314 315 316 317 318 319 320 321 325 327 328 329 330 331 332 333 334 335 336 337 338 344 345 346 347 348 349 350 351 352 353 354 355 356 357 358 360 363 368 369 370 371 372 373 374 376 377 378 379 381 382 383 384 385 389 390 391 392 393 394 395 396 397 398 400 401 406 407 408 409 410 411 412 413 414 416 419 420 421 423 425
 29 30 31 32 33 38 43 44 45 52 56 57 58 59 60 61 62 63 64 65 66 67 68 69 70 71 72 73 74 75 76 77 78 79 80 81 82 83 84 85 86 87 88 89 91 92 93 94 95 96 97 98 99 100 101 102 103 104 105 108 109 110 111 112 113 114 115 116 117 120 121 123 124 125 128 129 130 131 132 133 134 135 136 137 138 139 141 142 143 144 145 146 147 148 149 150 152 153 154 155 156 157 159 160 161 162 163 164 165 168 170 171 172 174 175 176 177 178 179 180 181 182 183 184 185 186 187 188 189 190 191 192 193 194 195 196 197 198 209 210 211 212 213 214 215 216 217 218 219 220 221 222 223 224 225 226 234 235 236 237 240 241 242 243 244 245 246 247 248 249 250 251 252 253 254 255 256 257 258 259 260 261 262 263 265 266 267 269 271 275 276 277 278 279 280 281 282 283 284 285 286 287 288 289 290 291 292 293 294 295 296 297 298 299 300 301 302 303 304 305 306 307 308 309 311 313 314 315 316 317 318 319 320 321 325 327 328 329 330 331 332 333 334 335 336 337 338 344 345 346 347 348 349 350 351 352 353 354 355 356 357 358 360 363 368 369 370 371 372 373 374 376 377 378 379 381 382 383 384 385 389 390 391 392 393 394 395 396 397 398 400 401 406 407 408 409 410 411 412 413 414 416 419 420 421 423 425
 30 31 32 33 38 43 44 45 52 56 57 58 59 60 61 62 63 64 65 66 67 68 69 70 71 72 73 74 75 76 77 78 79 80 81 82 83 84 85 86 87 88 89 91 92 93 94 95 96 97 98 99 100 101 102 103 104 105 108 109 110 111 112 113 114 115 116 117 120 121 123 124 125 128 129 130 131 132 133 134 135 136 137 138 139 141 142 143 144 145 146 147 148 149 150 152 153 154 155 156 157 159 160 161 162 163 164 165 168 170 171 172 174 175 176 177 178 179 180 181 182 183 184 185 186 187 188 189 190 191 192 193 194 195 196 197 198 209 210 211 212 213 214 215 216 217 218 219 220 221 222 223 224 225 226 234 235 236 237 240 241 242 243 244 245 246 247 248 249 250 251 252 253 254 255 256 257 258 259 260 261 262 263 265 266 267 269 271 275 276 277 278 279 280 281 282 283 284 285 286 287 288 289 290 291 292 293 294 295 296 297 298 299 300 301 302 303 304 305 306 307 308 309 311 313 314 315 316 317 318 319 320 321 325 327 328 329 330 331 332 333 334 335 336 337 338 344 345 346 347 348 349 350 351 352 353 354 355 356 357 358 360 363 368 369 370 371 372 373 374 376 377 378 379 381 382 383 384 385 389 390 391 392 393 394 395 396 397 398 400 401 406 407 408 409 410 411 412 413 414 416 419 420 421 423 425
 31 32 33 38 43 44 45 52 56 57 58 59 60 61 62 63 64 65 66 67 68 69 70 71 72 73 74 75 76 77 78 79 80 81 82 83 84 85 86 87 88 89 91 92 93 94 95 96 97 98 99 100 101 102 103 104 105 108 109 110 111 112 113 114 115 116 117 120 121 123 124 125 128 129 130 131 132 133 134 135 136 137 138 139 141 142 143 144 145 146 147 148 149 150 152 153 154 155 156 157 159 160 161 162 163 164 165 168 170 171 172 174 175 176 177 178 179 180 181 182 183 184 185 186 187 188 189 190 191 192 193 194 195 196 197 198 209 210 211 212 213 214 215 216 217 218 219 220 221 222 223 224 225 226 234 235 236 237 240 241 242 243 244 245 246 247 248 249 250 251 252 253 254 255 256 257 258 259 260 261 262 263 265 266 267 269 271 275 276 277 278 279 280 281 282 283 284 285 286 287 288 289 290 291 292 293 294 295 296 297 298 299 300 301 302 303 304 305 306 307 308 309 311 313 314 315 316 317 318 319 320 321 325 327 328 329 330 331 332 333 334 335 336 337 338 344 345 346 347 348 349 350 351 352 353 354 355 356 357 358 360 363 368 369 370 371 372 373 374 376 377 378 379 381 382 383 384 385 389 390 391 392 393 394 395 396 397 398 400 401 406 407 408 409 410 411 412 413 414 416 419 420 421 423 425
 32 33 38 43 44 45 52 56 57 58 59 60 61 62 63 64 65 66 67 68 69 70 71 72 73 74 75 76 77 78 79 80 81 82 83 84 85 86 87 88 89 91 92 93 94 95 96 97 98 99 100 101 102 103 104 105 108 109 110 111 112 113 114 115 116 117 120 121 123 124 125 128 129 130 131 132 133 134 135 136 137 138 139 141 142 143 144 145 146 147 148 149 150 152 153 154 155 156 157 159 160 161 162 163 164 165 168 170 171 172 174 175 176 177 178 179 180 181 182 183 184 185 186 187 188 189 190 191 192 193 194 195 196 197 198 209 210 211 212 213 214 215 216 217 218 219 220 221 222 223 224 225 226 234 235 236 237 240 241 242 243 244 245 246 247 248 249 250 251 252 253 254 255 256 257 258 259 260 261 262 263 265 266 267 269 271 275 276 277 278 279 280 281 282 283 284 285 286 287 288 289 290 291 292 293 294 295 296 297 298 299 300 301 302 303 304 305 306 307 308 309 311 313 314 315 316 317 318 319 320 321 325 327 328 329 330 331 332 333 334 335 336 337 338 344 345 346 347 348 349 350 351 352 353 354 355 356 357 358 360 363 368 369 370 371 372 373 374 376 377 378 379 381 382 383 384 385 389 390 391 392 393 394 395 396 397 398 400 401 406 407 408 409 410 411 412 413 414 416 419 420 421 423 425
 33 38 43 44 45 52 56 57 58 59 60 61 62 63 64 65 66 67 68 69 70 71 72 73 74 75 76 77 78 79 80 81 82 83 84 85 86 87 88 89 91 92 93 94 95 96 97 98 99 100 101 102 103 104 105 108 109 110 111 112 113 114 115 116 117 120 121 123 124 125 128 129 130 131 132 133 134 135 136 137 138 139 141 142 143 144 145 146 147 148 149 150 152 153 154 155 156 157 159 160 161 162 163 164 165 168 170 171 172 174 175 176 177 178 179 180 181 182 183 184 185 186 187 188 189 190 191 192 193 194 195 196 197 198 209 210 211 212 213 214 215 216 217 218 219 220 221 222 223 224 225 226 234 235 236 237 240 241 242 243 244 245 246 247 248 249 250 251 252 253 254 255 256 257 258 259 260 261 262 263 265 266 267 269 271 275 276 277 278 279 280 281 282 283 284 285 286 287 288 289 290 291 292 293 294 295 296 297 298 299 300 301 302 303 304 305 306 307 308 309 311 313 314 315 316 317 318 319 320 321 325 327 328 329 330 331 332 333 334 335 336 337 338 344 345 346 347 348 349 350 351 352 353 354 355 356 357 358 360 363 368 369 370 371 372 373 374 376 377 378 379 381 382 383 384 385 389 390 391 392 393 394 395 396 397 398 400 401 406 407 408 409 410 411 412 413 414 416 419 420 421 423 425
 43 45 59 60 61 62 63 64 89 91 92 93 94 95 96 97 98 99 100 101 102 103 104 105 108 109 110 111 112 113 114 115 116 117 120 121 123 124 125 128 129 130 131 132 133 134 135 136 137 138 139 141 142 143 144 145 146 147 148 149 150 152 153 154 155 156 157 159 160 161 162 163 164 165 168 170 171 172 174 175 176 177 178 179 180 181 182 183 184 185 186 187 188 189 190 191 192 193 194 195 196 197 198 209 210 211 212 213 214 215 216 217 218 219 220 221 222 223 224 225 226 234 235 407 408 409 410 411 412 413 414 416 419 420 421 423 425




 44 52 56 57 58 65 66 67 68 69 89 95 240 241 242 243 256 257 258 259 260 261 262 263 265 266 267 269 271 275 276 277 278 279 280 281 282 283 284 285 286 287 288 289 290 291 292 293 294 295 296 297 298 299 300 301 302 303 304 305 306 307 308 309 311 313 314 315 316 317 318 319 325 327 328 329 330 331 332 333 334 335 336 337 338 344 345 346 347 348 349 350 351 352 353 354 355 356 357 358 360 363 368 369 370 371 372 373 374 376 377 378 379 381 382 383 384 385 389 390 391 392 393 394 395 396 397 398 400 401 406




 45 62 63 89 95 139 159 160 161 162 163 164 165 168 170 171 172 174 175 176 177 178 179 180 181 182 183 184 185 186 187 188 189 190 191 192 193 194 195 196 197 198 209 210 211 212 213 214 215 216 217 218 219 220 221 222 223 224 225 226 234
 52 57 68 69 89 95 284 313 314 315 316 317 318 319 320 321 325 327 328 329 330 331 332 333 334 335 336 337 338 344 345 346 347 348 349 350 351 352 353 354 355 356 357 358 360 363
 62 63 64 89 95 139 141 142 143 144 145 146 147 148 149 150 152 153 154 155 156 157 159 160 161 162 163 164 165 168 170 171 172 174 175 176 177 178 179 180 181 182 183 184 185 186 187 188 189 190 191 192 193 194 195 196 197 198 209 210 211 212 213 214 215 216 217 218 219 220 221 222 223 224 225 226 234 235 407 408 409 410 411 412 413 414 416 419




 78 79 80 81 82 83 84 85 86 364 366

 56 57 58 65 66 67 69 89 95 240 241 256 257 258 259 260 261 262 263 265 266 267 269 271 275 276 277 278 279 280 281 282 283 284 285 286 287 288 289 290 291 292 293 294 295 296 297 298 299 300 301 302 303 304 305 306 307 308 309 311 313 314 315 316 317 325 327 328 329 330 331 332 333 334 335 336 337 338 344 368 369 370 371 372 373 374 376 377 378 379 381 382 383 384 385 389 390 391 392 393 394 395 396 397 398 400 401 406



 66 89 258 260 261 263 265 266 267 269 271 275
 68 69 89 95 284 311 313 314 315 316 317 318 319 320 321 325 327 328 329 330 331 332 333 334 335 336 337 338 344 345 346 347 348 349 350 351 352 353 354 355 356 357 358 360 363
 67 89 95 284 370 373 374 376 377 378 379 381 382 383 384 385 389
 60 61 89 95 100 102 103 104 108 109 110 111 112 113 114 115 116 117 120 121 123 124 125 128
 61 89 95 100 102 103 104 108 109 110 111 112 113 114 115 116 117 120 121 123 124 125 128
 89 95 100 104 111 113 121 123 124 125 128
 89 95 139 161 164 217 222 224 226 234
 89 95 139 184 190 192 194 196 198 209
 89 95 411 414 416 419
 89 95 394 397 398 400 401 406
 89 258 261 263 267 271 275
 89 95 284 370 374 376 383 385 389
 89 95 284 316 349 351 354 356 358 360 363
 89 95 284 333 336 338 344








 79 80 81 82 83 84 85 86 126 173 200 201 202 203 204 205 206 207 228 229 230 231 232 272 273 340 341 342 364 366 387 402 403 404 417
 80 81 82 83 84 85 86 126 173 200 201 202 203 204 205 206 207 228 229 230 231 232 272 273 340 341 342 364 366 387 402 403 404 417
 81 82 83 84 85 86 126 173 200 201 202 203 204 205 206 207 228 229 230 231 232 272 273 340 341 342 364 366 387 402 403 404 417
 82 83 84 85 86 126 173 200 201 202 203 204 205 206 207 228 229 230 231 232 272 273 340 341 342 364 366 387 402 403 404 417
 83 84 85 86 126 173 200 201 202 203 204 205 206 207 228 229 230 231 232 272 273 340 341 342 364 366 387 402 403 404 417
 84 85 86 126 173 200 201 202 203 204 205 206 207 228 229 230 231 232 272 273 340 341 342 364 366 387 402 403 404 417
 85 86 126 173 200 201 202 203 204 205 206 207 228 229 230 231 232 272 273 340 341 342 364 366 387 402 403 404 417
 86 126 173 200 201 202 203 204 205 206 207 228 229 230 231 232 272 273 340 341 342 364 366 387 402 403 404 417
 126 173 200 201 202 203 204 205 206 207 228 229 230 231 232 272 273 340 341 342 364 366 387 402 403 404 417


 91 92 93 94 95 96 97 98 99 100 101 102 103 104 105 108 109 110 111 112 113 114 115 116 117 120 121 123 124 125 128 129 130 131 132 133 134 135 136 137 138 139 141 142 143 144 145 146 147 148 149 150 152 153 154 155 156 157 159 160 161 162 163 164 165 168 170 171 172 174 175 176 177 178 179 180 181 182 183 184 185 186 187 188 189 190 191 192 193 194 195 196 197 198 209 210 211 212 213 214 215 216 217 218 219 220 221 222 223 224 225 226 234 235 236 237 240 241 242 243 256 257 258 259 260 261 262 263 265 266 267 269 271 275 276 277 278 279 280 281 282 283 284 285 286 287 288 289 290 291 292 293 294 295 296 297 298 299 300 301 302 303 304 305 306 307 308 309 311 313 314 315 316 317 318 319 320 321 325 327 328 329 330 331 332 333 334 335 336 337 338 344 345 346 347 348 349 350 351 352 353 354 355 356 357 358 360 363 368 369 370 371 372 373 374 376 377 378 379 381 382 383 384 385 389 390 391 392 393 394 395 396 397 398 400 401 406 407 408 409 410 411 412 413 414 416 419 420 421 423 425


 93 94 95


 96 97 98 99 100 101 102 103 104 105 108 109 110 111 112 113 114 115 116 117 120 121 123 124 125 128 129 130 131 132 133 134 135 136 137 138 139 141 142 143 144 145 146 147 148 149 150 152 153 154 155 156 157 159 160 161 162 163 164 165 168 170 171 172 174 175 176 177 178 179 180 181 182 183 184 185 186 187 188 189 190 191 192 193 194 195 196 197 198 209 210 211 212 213 214 215 216 217 218 219 220 221 222 223 224 225 226 234 235 236 237 240 276 277 278 279 280 281 282 283 284 285 286 287 288 289 290 291 292 293 294 295 296 297 298 299 300 301 302 303 304 306 307 308 309 311 313 314 315 316 317 318 319 320 321 325 327 328 329 330 331 332 333 334 335 336 337 338 344 345 346 347 348 349 350 351 352 353 354 355 356 357 358 360 363 368 369 370 371 372 373 374 376 377 378 379 381 382 383 384 385 389 390 391 392 393 394 395 396 397 398 400 401 406 407 408 409 410 411 412 413 414 416 419 420 421 423 425

 98 99 100
 99 100 101 102

 101 102 103 104 105 108 109 110 111 112 113 114 115 116 117 120 121 123 124 125 128
 102 103
 103 104 105
 104 105 108
 105 108 109 110 111 112 113 114 115 116 117 120 121 123 124 125 128



 109 110 111 112 113 114
 110 111 112

 112 113 114 115 116 117 120 121 123 124 125 128

 114 115 116 117 120 121 123 124 125 128







 123 124

 124 125 128
 125 128
 128



 130
 131

 133



 137

 139
 141 142 143 144 145 146 147 148 149 150 152 153 154 155 157 159 160 161 162 163 164 165 168 170 171 172 174 175 176 177 178 179 180 181 182 183 184 185 186 187 188 189 190 191 192 193 194 195 196 197 198 209 210 211 212 213 214 215 216 217 218 219 220 221 222 223 224 225 226 234



 144



 148





 154







 162 163 164 165 168 172 174 210 211 212 213 214 215 216 217 218 219 220 221 222 223 224 225 226 234
 163 164
 164 165
 165 168 172 174 175 210 211 212 213 214 215 216 217 218 219 220 221 222 223 224 225 226 234








 200 201 202 203 204 205 206 207
 175 176 177 178 179 180 181
 176 177 178 179 180 181 182
 177 178 179


 180
 181 182 183 184
 182 183 184 185
 183 184 185 186
 184 185 186 187
 185 186 187 188 189 190 191 192 193 194 195 196 197 198 209
 186 187 188 189
 187 188 189 190 191 192 193 194 195 196 197
 188 189 190 191 192 193
 189 190 191 192 193 194 195

 191 192 193 194 195 196 197 198 209

 193 194 195 196 197 198 209

 195 196 197 198 209

 197 198 209

 209

 201

 203 204 205
 204

 206





 212 213
 213 214
 214 215
 215 216 217 218
 216 217 218 219
 217
 218 219 220 221 222 223 224 225 226 234
 219 220 221 222 223 224 225
 220 221
 221 222 223

 223 224 225 226 234

 225 226 234

 234

 229

 231











 243

 245

 247

 249 250 251 252 253 254 255
 250 251 252 253 254 255
 251 252 253 254 255
 252 253 254 255
 253 254 255
 254 255
 255

 257 258
 258 259
 259 260 261 262 263 265 266 267 269 271 275
 260
 261 262 263
 262 263 265 266 267 269 271 275

 265 266 267 269 271 275

 266

 269 271 275



 275




 277 278

 279

 281 282 283 284 285
 282 283 284
 283 284 285

 285 286 287 288 289 290 291 292 293 294 295 296 297 298 299 300 301 302 303 304 306 307 308 309 311 313 314 315 316 317 318 319 320 321 325 327 328 329 330 331 332 333 334 335 336 337 338 344 345 346 347 348 349 350 351 352 353 354 355 356 357 358 360 363 368 369 370 371 372 373 374 376 377 378 379 381 382 383 384 385 389





 291




 296 297 298 299
 297





 303



 307






 314 315
 315 316
 316 317 345 346 347 348 349 350 351 352 353
 317 318 319 320 321 329 330 331 332 333 334 335 336 337 345 346 347 348 349 350 351 352 353 354 355 356 357 358 360 363

 319













 333
 334 335 336 337 338 344
 335

 337 338 344

 344

 341






 348 349

 350 351 352 353 354 355 356 357 358 360 363
 351
 352 353 354 355 356 357 358 360 363
 353 354 355 356 357

 355 356 357 358 360 363

 357 358 360 363

 360 363









 369 370 371
 370 371 372
 371 372 373 374 376 377 378 379 381 382 383 384 385 389
 372
 373
 374
 376 377 378 379 381 382 383 384 385 389

 377 378 379 381 382 383 384 385 389
 378 382
 382 383 384




 384 385 389

 389







 394
 395 396 397 398 400 401 406
 396

 398 400 401 406
 400

 401 406
 406
 403







 411
 412 413 414 416 419
 413

 416 419

 419









